Welcome to the CBC MILP Solver 
Version: Trunk
Build Date: Apr 16 2020 

Starting solution of the Linear programming relaxation problem using Primal Simplex

Using Python-MIP package version 1.8.1
Machines:  4 Jobs:  4
Order: 
Job  0 : machine 0 ( 10 ) machine 3 ( 1 ) machine 2 ( 6 ) machine 1 ( 7 ) 
Job  1 : machine 0 ( 1 ) machine 3 ( 7 ) machine 1 ( 5 ) machine 2 ( 8 ) 
Job  2 : machine 3 ( 9 ) machine 2 ( 3 ) machine 1 ( 7 ) machine 0 ( 1 ) 
Job  3 : machine 1 ( 7 ) machine 3 ( 3 ) machine 0 ( 9 ) machine 2 ( 10 ) 
K:  44
Job  0 , e: machine  0 ( 0 ) machine  1 ( 17 ) machine  2 ( 11 ) machine  3 ( 10 ) 
Job  1 , e: machine  0 ( 0 ) machine  1 ( 8 ) machine  2 ( 13 ) machine  3 ( 1 ) 
Job  2 , e: machine  0 ( 19 ) machine  1 ( 12 ) machine  2 ( 9 ) machine  3 ( 0 ) 
Job  3 , e: machine  0 ( 10 ) machine  1 ( 0 ) machine  2 ( 19 ) machine  3 ( 7 ) 
Job  0 , f: machine  0 ( 14 ) machine  1 ( 0 ) machine  2 ( 7 ) machine  3 ( 13 ) 
Job  1 , f: machine  0 ( 20 ) machine  1 ( 8 ) machine  2 ( 0 ) machine  3 ( 13 ) 
Job  2 , f: machine  0 ( 0 ) machine  1 ( 1 ) machine  2 ( 8 ) machine  3 ( 11 ) 
Job  3 , f: machine  0 ( 10 ) machine  1 ( 22 ) machine  2 ( 0 ) machine  3 ( 19 ) 
EST and LST:
Job: 0 Machine: 0 EST: 0 LST: 20
Job: 0 Machine: 1 EST: 17 LST: 37
Job: 0 Machine: 2 EST: 11 LST: 31
Job: 0 Machine: 3 EST: 10 LST: 30
Job: 1 Machine: 0 EST: 0 LST: 23
Job: 1 Machine: 1 EST: 8 LST: 31
Job: 1 Machine: 2 EST: 13 LST: 36
Job: 1 Machine: 3 EST: 1 LST: 24
Job: 2 Machine: 0 EST: 19 LST: 43
Job: 2 Machine: 1 EST: 12 LST: 36
Job: 2 Machine: 2 EST: 9 LST: 33
Job: 2 Machine: 3 EST: 0 LST: 24
Job: 3 Machine: 0 EST: 10 LST: 25
Job: 3 Machine: 1 EST: 0 LST: 15
Job: 3 Machine: 2 EST: 19 LST: 34
Job: 3 Machine: 3 EST: 7 LST: 22
Order:
Job: 0 Machine: 0 = 0 
Job: 0 Machine: 1 = 3 
Job: 0 Machine: 2 = 2 
Job: 0 Machine: 3 = 1 
Job: 1 Machine: 0 = 0 
Job: 1 Machine: 1 = 2 
Job: 1 Machine: 2 = 3 
Job: 1 Machine: 3 = 1 
Job: 2 Machine: 0 = 3 
Job: 2 Machine: 1 = 2 
Job: 2 Machine: 2 = 1 
Job: 2 Machine: 3 = 0 
Job: 3 Machine: 0 = 2 
Job: 3 Machine: 1 = 0 
Job: 3 Machine: 2 = 3 
Job: 3 Machine: 3 = 1 
Distances:
Job 0, Machine 0 -> Machine 3: distance 10
Job 0, Machine 0 -> Machine 2: distance 11
Job 0, Machine 0 -> Machine 1: distance 17
Job 0, Machine 3 -> Machine 2: distance 1
Job 0, Machine 3 -> Machine 1: distance 7
Job 0, Machine 2 -> Machine 1: distance 6
Job 1, Machine 0 -> Machine 3: distance 1
Job 1, Machine 0 -> Machine 1: distance 8
Job 1, Machine 0 -> Machine 2: distance 13
Job 1, Machine 3 -> Machine 1: distance 7
Job 1, Machine 3 -> Machine 2: distance 12
Job 1, Machine 1 -> Machine 2: distance 5
Job 2, Machine 3 -> Machine 2: distance 9
Job 2, Machine 3 -> Machine 1: distance 12
Job 2, Machine 3 -> Machine 0: distance 19
Job 2, Machine 2 -> Machine 1: distance 3
Job 2, Machine 2 -> Machine 0: distance 10
Job 2, Machine 1 -> Machine 0: distance 7
Job 3, Machine 1 -> Machine 3: distance 7
Job 3, Machine 1 -> Machine 0: distance 10
Job 3, Machine 1 -> Machine 2: distance 19
Job 3, Machine 3 -> Machine 0: distance 3
Job 3, Machine 3 -> Machine 2: distance 12
Job 3, Machine 0 -> Machine 2: distance 9
McCormic linearization
19.0 13.0 7
14.0 13.0 7
19.0 19.0 10
10.0 7.0 7
7.0 1.0 9
[(0, 1), (1, 2), (3, 2), (0, 0), (1, 3), (2, 1), (1, 0), (0, 3)]
obj:  0.6000000000000001
solutions:  1
+ x(0,0) + 0.1x(1,0) 
C:  29.0
x(0,0) = 0.73	 x(0,1) = 19.06	 x(0,2) = 11.73	 x(0,3) = 10.73	 
x(1,0) = 2.73	 x(1,1) = 10.73	 x(1,2) = 20.27	 x(1,3) = 3.73	 
x(2,0) = 24.24	 x(2,1) = 17.24	 x(2,2) = 14.24	 x(2,3) = 5.24	 
x(3,0) = 10.00	 x(3,1) = 0.00	 x(3,2) = 19.00	 x(3,3) = 7.00	 
y(0,1,0) = 0.12	 y(1,0,0) = 0.88	 
y(0,2,0) = 0.56	 y(2,0,0) = 0.44	 
y(0,3,0) = 0.96	 y(3,0,0) = 0.04	 
y(1,2,0) = 0.51	 y(2,1,0) = 0.49	 
y(1,3,0) = 0.74	 y(3,1,0) = 0.26	 
y(2,3,0) = 0.00	 y(3,2,0) = 1.00	 
y(0,1,1) = 0.00	 y(1,0,1) = 1.00	 
y(0,2,1) = 0.20	 y(2,0,1) = 0.80	 
y(0,3,1) = 0.00	 y(3,0,1) = 1.00	 
y(1,2,1) = 0.39	 y(2,1,1) = 0.61	 
y(1,3,1) = 0.16	 y(3,1,1) = 0.84	 
y(2,3,1) = 0.00	 y(3,2,1) = 1.00	 
y(0,1,2) = 0.76	 y(1,0,2) = 0.24	 
y(0,2,2) = 0.46	 y(2,0,2) = 0.54	 
y(0,3,2) = 0.93	 y(3,0,2) = 0.07	 
y(1,2,2) = 0.00	 y(2,1,2) = 1.00	 
y(1,3,2) = 0.28	 y(3,1,2) = 0.72	 
y(2,3,2) = 0.92	 y(3,2,2) = 0.08	 
y(0,1,3) = 0.00	 y(1,0,3) = 1.00	 
y(0,2,3) = 0.15	 y(2,0,3) = 0.85	 
y(0,3,3) = 0.04	 y(3,0,3) = 0.96	 
y(1,2,3) = 0.33	 y(2,1,3) = 0.67	 
y(1,3,3) = 0.26	 y(3,1,3) = 0.74	 
y(2,3,3) = 0.19	 y(3,2,3) = 0.81	 
19.059504933051446 17.23890063424947 7
20.27145415573211 19.000000000000004 10
10.727272727272727 5.238900634249468 9
obj:  0.9174311926605515
solutions:  1
+ 0.09174311926605497x(0,0) + 0.08256880733944967x(3,0) + 0.009174311926605427x(1,0) 
[(0, 1), (3, 2), (0, 0), (3, 0), (2, 1), (2, 2), (1, 0), (0, 2)]
cliques:  1 mip: 56
C:  29.0
x(0,0) = 1.78	 x(0,1) = 18.78	 x(0,2) = 12.78	 x(0,3) = 11.78	 
x(1,0) = 1.24	 x(1,1) = 9.24	 x(1,2) = 21.00	 x(1,3) = 2.24	 
x(2,0) = 19.00	 x(2,1) = 12.00	 x(2,2) = 9.00	 x(2,3) = 0.00	 
x(3,0) = 10.00	 x(3,1) = 0.00	 x(3,2) = 19.00	 x(3,3) = 7.00	 
y(0,1,0) = 0.02	 y(1,0,0) = 0.98	 
y(0,2,0) = 0.61	 y(2,0,0) = 0.39	 
y(0,3,0) = 0.91	 y(3,0,0) = 0.09	 
y(1,2,0) = 0.84	 y(2,1,0) = 0.16	 
y(1,3,0) = 0.68	 y(3,1,0) = 0.32	 
y(2,3,0) = 0.00	 y(3,2,0) = 1.00	 
y(0,1,1) = 0.00	 y(1,0,1) = 1.00	 
y(0,2,1) = 0.01	 y(2,0,1) = 0.99	 
y(0,3,1) = 0.00	 y(3,0,1) = 1.00	 
y(1,2,1) = 0.61	 y(2,1,1) = 0.39	 
y(1,3,1) = 0.09	 y(3,1,1) = 0.91	 
y(2,3,1) = 0.00	 y(3,2,1) = 1.00	 
y(0,1,2) = 0.68	 y(1,0,2) = 0.32	 
y(0,2,2) = 0.06	 y(2,0,2) = 0.94	 
y(0,3,2) = 0.79	 y(3,0,2) = 0.21	 
y(1,2,2) = 0.00	 y(2,1,2) = 1.00	 
y(1,3,2) = 0.26	 y(3,1,2) = 0.74	 
y(2,3,2) = 0.68	 y(3,2,2) = 0.32	 
y(0,1,3) = 0.18	 y(1,0,3) = 0.82	 
y(0,2,3) = 0.13	 y(2,0,3) = 0.87	 
y(0,3,3) = 0.09	 y(3,0,3) = 0.91	 
y(1,2,3) = 0.21	 y(2,1,3) = 0.79	 
y(1,3,3) = 0.32	 y(3,1,3) = 0.68	 
y(2,3,3) = 0.40	 y(3,2,3) = 0.60	 
1.7758726711774386 1.2412732882254955 1
18.775872671177442 12.000000000000004 7
20.999999999999996 19.0 10
2.2412732882254955 0.0 9
obj:  0.9196841505497634
solutions:  1
+ 0.0050251256281407045x(0,0) + 0.09045226130653265x(3,0) + 0.005025125628140705x(1,0) 
[(0, 1), (1, 2), (3, 2), (0, 0), (1, 3), (3, 0), (2, 1), (1, 0)]
cliques:  1 mip: 46
C:  30.126338329764465
x(0,0) = 6.13	 x(0,1) = 23.13	 x(0,2) = 17.13	 x(0,3) = 16.13	 
x(1,0) = 0.00	 x(1,1) = 8.00	 x(1,2) = 13.00	 x(1,3) = 1.00	 
x(2,0) = 26.08	 x(2,1) = 19.08	 x(2,2) = 16.08	 x(2,3) = 7.08	 
x(3,0) = 10.72	 x(3,1) = 0.00	 x(3,2) = 19.72	 x(3,3) = 7.00	 
y(0,1,0) = 0.00	 y(1,0,0) = 1.00	 
y(0,2,0) = 0.63	 y(2,0,0) = 0.37	 
y(0,3,0) = 0.73	 y(3,0,0) = 0.27	 
y(1,2,0) = 0.89	 y(2,1,0) = 0.11	 
y(1,3,0) = 0.58	 y(3,1,0) = 0.42	 
y(2,3,0) = 0.27	 y(3,2,0) = 0.73	 
y(0,1,1) = 0.00	 y(1,0,1) = 1.00	 
y(0,2,1) = 0.11	 y(2,0,1) = 0.89	 
y(0,3,1) = 0.00	 y(3,0,1) = 1.00	 
y(1,2,1) = 0.74	 y(2,1,1) = 0.26	 
y(1,3,1) = 0.04	 y(3,1,1) = 0.96	 
y(2,3,1) = 0.00	 y(3,2,1) = 1.00	 
y(0,1,2) = 0.28	 y(1,0,2) = 0.72	 
y(0,2,2) = 0.14	 y(2,0,2) = 0.86	 
y(0,3,2) = 0.81	 y(3,0,2) = 0.19	 
y(1,2,2) = 0.26	 y(2,1,2) = 0.74	 
y(1,3,2) = 0.95	 y(3,1,2) = 0.05	 
y(2,3,2) = 0.97	 y(3,2,2) = 0.03	 
y(0,1,3) = 0.00	 y(1,0,3) = 1.00	 
y(0,2,3) = 0.00	 y(2,0,3) = 1.00	 
y(0,3,3) = 0.31	 y(3,0,3) = 0.69	 
y(1,2,3) = 0.47	 y(2,1,3) = 0.53	 
y(1,3,3) = 0.37	 y(3,1,3) = 0.63	 
y(2,3,3) = 0.15	 y(3,2,3) = 0.85	 
23.12633832976446 19.080459770114967 7
17.12633832976446 13.0 8
17.12633832976446 16.080459770114963 3
7.080459770114967 7.0 3
obj:  0.8291430729726685
solutions:  1
+ 0.022759601706970157x(1,2) + 0.017780938833570393x(3,2) + 0.01066856330014225x(0,2) 
[(0, 1), (1, 2), (3, 2), (0, 0), (3, 0), (2, 1), (2, 2), (0, 2)]
cliques:  1 mip: 61
C:  32.502726689987206
x(0,0) = 3.39	 x(0,1) = 24.60	 x(0,2) = 18.60	 x(0,3) = 17.60	 
x(1,0) = 0.00	 x(1,1) = 13.31	 x(1,2) = 19.46	 x(1,3) = 1.00	 
x(2,0) = 25.31	 x(2,1) = 18.31	 x(2,2) = 15.31	 x(2,3) = 4.86	 
x(3,0) = 10.87	 x(3,1) = 0.00	 x(3,2) = 20.17	 x(3,3) = 7.87	 
y(0,1,0) = 0.00	 y(1,0,0) = 1.00	 
y(0,2,0) = 0.64	 y(2,0,0) = 0.36	 
y(0,3,0) = 0.87	 y(3,0,0) = 0.13	 
y(1,2,0) = 0.96	 y(2,1,0) = 0.04	 
y(1,3,0) = 0.65	 y(3,1,0) = 0.35	 
y(2,3,0) = 0.23	 y(3,2,0) = 0.77	 
y(0,1,1) = 0.00	 y(1,0,1) = 1.00	 
y(0,2,1) = 0.03	 y(2,0,1) = 0.97	 
y(0,3,1) = 0.00	 y(3,0,1) = 1.00	 
y(1,2,1) = 0.89	 y(2,1,1) = 0.11	 
y(1,3,1) = 0.26	 y(3,1,1) = 0.74	 
y(2,3,1) = 0.00	 y(3,2,1) = 1.00	 
y(0,1,2) = 0.55	 y(1,0,2) = 0.45	 
y(0,2,2) = 0.02	 y(2,0,2) = 0.98	 
y(0,3,2) = 0.35	 y(3,0,2) = 0.65	 
y(1,2,2) = 0.05	 y(2,1,2) = 0.95	 
y(1,3,2) = 0.71	 y(3,1,2) = 0.29	 
y(2,3,2) = 0.92	 y(3,2,2) = 0.08	 
y(0,1,3) = 0.00	 y(1,0,3) = 1.00	 
y(0,2,3) = 0.18	 y(2,0,3) = 0.82	 
y(0,3,3) = 0.17	 y(3,0,3) = 0.83	 
y(1,2,3) = 0.40	 y(2,1,3) = 0.60	 
y(1,3,3) = 0.41	 y(3,1,3) = 0.59	 
y(2,3,3) = 0.24	 y(3,2,3) = 0.76	 
24.59788077882379 18.30695050104373 7
obj:  0.9641127758390895
solutions:  1
+ 0.013586956521739125x(1,2) + 0.027173913043478267x(3,2) + 0.008152173913043476x(0,2) 
[(0, 1), (1, 2), (3, 2), (0, 0), (1, 3), (3, 0), (2, 1), (0, 2)]
cliques:  1 mip: 85
C:  33.98366260406067
x(0,0) = 6.08	 x(0,1) = 24.08	 x(0,2) = 17.08	 x(0,3) = 16.08	 
x(1,0) = 4.77	 x(1,1) = 12.77	 x(1,2) = 17.89	 x(1,3) = 5.77	 
x(2,0) = 24.08	 x(2,1) = 17.08	 x(2,2) = 14.08	 x(2,3) = 3.21	 
x(3,0) = 10.45	 x(3,1) = -0.00	 x(3,2) = 23.08	 x(3,3) = 7.00	 
y(0,1,0) = 0.00	 y(1,0,0) = 1.00	 
y(0,2,0) = 0.71	 y(2,0,0) = 0.29	 
y(0,3,0) = 0.72	 y(3,0,0) = 0.28	 
y(1,2,0) = 0.93	 y(2,1,0) = 0.07	 
y(1,3,0) = 0.73	 y(3,1,0) = 0.27	 
y(2,3,0) = 0.19	 y(3,2,0) = 0.81	 
y(0,1,1) = 0.00	 y(1,0,1) = 1.00	 
y(0,2,1) = 0.00	 y(2,0,1) = 1.00	 
y(0,3,1) = 0.00	 y(3,0,1) = 1.00	 
y(1,2,1) = 0.83	 y(2,1,1) = 0.17	 
y(1,3,1) = 0.37	 y(3,1,1) = 0.63	 
y(2,3,1) = 0.00	 y(3,2,1) = 1.00	 
y(0,1,2) = 0.55	 y(1,0,2) = 0.45	 
y(0,2,2) = 0.00	 y(2,0,2) = 1.00	 
y(0,3,2) = 1.00	 y(3,0,2) = 0.00	 
y(1,2,2) = 0.03	 y(2,1,2) = 0.97	 
y(1,3,2) = 0.89	 y(3,1,2) = 0.11	 
y(2,3,2) = 0.54	 y(3,2,2) = 0.46	 
y(0,1,3) = -0.00	 y(1,0,3) = 1.00	 
y(0,2,3) = 0.18	 y(2,0,3) = 0.82	 
y(0,3,3) = 0.12	 y(3,0,3) = 0.88	 
y(1,2,3) = 0.20	 y(2,1,3) = 0.80	 
y(1,3,3) = 0.46	 y(3,1,3) = 0.54	 
y(2,3,3) = 0.55	 y(3,2,3) = 0.45	 
17.084528659653113 14.084528659653117 3
5.770435548563814 3.2066871459716992 9
obj:  0.9813897457052009
solutions:  1
+ 0.014930399640772335x(1,2) + 0.023462056578356545x(3,2) + 0.010103277952402331x(0,2) 
[(1, 2), (3, 2), (0, 0), (3, 0), (2, 1), (1, 1), (2, 2), (0, 2)]
cliques:  1 mip: 87
C:  34.333330348248595
x(0,0) = 2.79	 x(0,1) = 25.21	 x(0,2) = 18.33	 x(0,3) = 12.79	 
x(1,0) = 0.00	 x(1,1) = 11.33	 x(1,2) = 16.33	 x(1,3) = 1.00	 
x(2,0) = 25.98	 x(2,1) = 18.98	 x(2,2) = 15.98	 x(2,3) = 6.84	 
x(3,0) = 11.00	 x(3,1) = 1.00	 x(3,2) = 24.33	 x(3,3) = 8.00	 
y(0,1,0) = 0.00	 y(1,0,0) = 1.00	 
y(0,2,0) = 0.75	 y(2,0,0) = 0.25	 
y(0,3,0) = 0.91	 y(3,0,0) = 0.09	 
y(1,2,0) = 0.77	 y(2,1,0) = 0.23	 
y(1,3,0) = 0.81	 y(3,1,0) = 0.19	 
y(2,3,0) = 0.25	 y(3,2,0) = 0.75	 
y(0,1,1) = 0.00	 y(1,0,1) = 1.00	 
y(0,2,1) = 0.03	 y(2,0,1) = 0.97	 
y(0,3,1) = 0.00	 y(3,0,1) = 1.00	 
y(1,2,1) = 0.57	 y(2,1,1) = 0.43	 
y(1,3,1) = 0.14	 y(3,1,1) = 0.86	 
y(2,3,1) = 0.00	 y(3,2,1) = 1.00	 
y(0,1,2) = 0.67	 y(1,0,2) = 0.33	 
y(0,2,2) = 0.13	 y(2,0,2) = 0.87	 
y(0,3,2) = 1.00	 y(3,0,2) = 0.00	 
y(1,2,2) = 0.12	 y(2,1,2) = 0.88	 
y(1,3,2) = 1.00	 y(3,1,2) = 0.00	 
y(2,3,2) = 0.83	 y(3,2,2) = 0.17	 
y(0,1,3) = 0.00	 y(1,0,3) = 1.00	 
y(0,2,3) = 0.13	 y(2,0,3) = 0.87	 
y(0,3,3) = 0.04	 y(3,0,3) = 0.96	 
y(1,2,3) = 0.46	 y(2,1,3) = 0.54	 
y(1,3,3) = 1.00	 y(3,1,3) = 0.00	 
y(2,3,3) = 0.17	 y(3,2,3) = 0.83	 
25.209386473504846 18.983128515246353 7
18.33334095571172 16.333340013857704 8
18.33334095571172 15.98312851524635 3
16.333340013857704 15.98312851524635 3
12.785373493408438 6.836104153816154 9
obj:  1.0000000000000002
erro
[(0, 1), (1, 2), (3, 2), (0, 0), (3, 0), (2, 1), (2, 2), (0, 2)]
cliques:  0 mip: 70
C:  34.999996368394996
x(0,0) = 4.50	 x(0,1) = 28.00	 x(0,2) = 20.12	 x(0,3) = 14.50	 
x(1,0) = 0.00	 x(1,1) = 11.02	 x(1,2) = 16.02	 x(1,3) = 1.00	 
x(2,0) = 28.84	 x(2,1) = 21.84	 x(2,2) = 18.84	 x(2,3) = 9.67	 
x(3,0) = 10.81	 x(3,1) = 0.81	 x(3,2) = 25.00	 x(3,3) = 7.81	 
y(0,1,0) = 0.00	 y(1,0,0) = 1.00	 
y(0,2,0) = 0.76	 y(2,0,0) = 0.24	 
y(0,3,0) = 0.82	 y(3,0,0) = 0.18	 
y(1,2,0) = 0.84	 y(2,1,0) = 0.16	 
y(1,3,0) = 0.83	 y(3,1,0) = 0.17	 
y(2,3,0) = 0.38	 y(3,2,0) = 0.62	 
y(0,1,1) = 0.00	 y(1,0,1) = 1.00	 
y(0,2,1) = 0.03	 y(2,0,1) = 0.97	 
y(0,3,1) = 0.00	 y(3,0,1) = 1.00	 
y(1,2,1) = 0.63	 y(2,1,1) = 0.37	 
y(1,3,1) = 0.13	 y(3,1,1) = 0.87	 
y(2,3,1) = 0.00	 y(3,2,1) = 1.00	 
y(0,1,2) = 0.14	 y(1,0,2) = 0.86	 
y(0,2,2) = 0.09	 y(2,0,2) = 0.91	 
y(0,3,2) = 0.94	 y(3,0,2) = 0.06	 
y(1,2,2) = 0.25	 y(2,1,2) = 0.75	 
y(1,3,2) = 1.00	 y(3,1,2) = 0.00	 
y(2,3,2) = 0.82	 y(3,2,2) = 0.18	 
y(0,1,3) = 0.00	 y(1,0,3) = 1.00	 
y(0,2,3) = 0.18	 y(2,0,3) = 0.82	 
y(0,3,3) = 0.11	 y(3,0,3) = 0.89	 
y(1,2,3) = 0.55	 y(2,1,3) = 0.45	 
y(1,3,3) = 0.70	 y(3,1,3) = 0.30	 
y(2,3,3) = 0.05	 y(3,2,3) = 0.95	 
27.999996368395 21.837230583341302 7
20.117100571751916 16.021745498775843 8
20.117100571751916 18.8372305833413 3
14.497551591141416 9.667163756694258 9
9.667163756694258 7.805691578269927 3
obj:  1.0237925133335564
erro
[(0, 1), (1, 2), (3, 2), (0, 0), (3, 0), (2, 1), (2, 2), (0, 2)]
cliques:  0 mip: 74
C:  34.99999636839495
x(0,0) = 3.06	 x(0,1) = 26.91	 x(0,2) = 17.78	 x(0,3) = 13.06	 
x(1,0) = 0.09	 x(1,1) = 11.44	 x(1,2) = 16.44	 x(1,3) = 1.09	 
x(2,0) = 27.66	 x(2,1) = 20.66	 x(2,2) = 17.66	 x(2,3) = 8.66	 
x(3,0) = 10.88	 x(3,1) = 0.88	 x(3,2) = 24.53	 x(3,3) = 7.88	 
y(0,1,0) = 0.00	 y(1,0,0) = 1.00	 
y(0,2,0) = 0.79	 y(2,0,0) = 0.21	 
y(0,3,0) = 0.89	 y(3,0,0) = 0.11	 
y(1,2,0) = 0.75	 y(2,1,0) = 0.25	 
y(1,3,0) = 0.80	 y(3,1,0) = 0.20	 
y(2,3,0) = 0.32	 y(3,2,0) = 0.68	 
y(0,1,1) = 0.00	 y(1,0,1) = 1.00	 
y(0,2,1) = 0.03	 y(2,0,1) = 0.97	 
y(0,3,1) = 0.00	 y(3,0,1) = 1.00	 
y(1,2,1) = 0.60	 y(2,1,1) = 0.40	 
y(1,3,1) = 0.15	 y(3,1,1) = 0.85	 
y(2,3,1) = 0.00	 y(3,2,1) = 1.00	 
y(0,1,2) = 0.25	 y(1,0,2) = 0.75	 
y(0,2,2) = 0.14	 y(2,0,2) = 0.86	 
y(0,3,2) = 1.00	 y(3,0,2) = 0.00	 
y(1,2,2) = 0.18	 y(2,1,2) = 0.82	 
y(1,3,2) = 1.00	 y(3,1,2) = 0.00	 
y(2,3,2) = 0.77	 y(3,2,2) = 0.23	 
y(0,1,3) = 0.00	 y(1,0,3) = 1.00	 
y(0,2,3) = 0.20	 y(2,0,3) = 0.80	 
y(0,3,3) = 0.00	 y(3,0,3) = 1.00	 
y(1,2,3) = 0.52	 y(2,1,3) = 0.48	 
y(1,3,3) = 0.73	 y(3,1,3) = 0.27	 
y(2,3,3) = 0.09	 y(3,2,3) = 0.91	 
26.911426142132992 20.657663712717575 7
17.779984047215414 16.440726436701503 8
17.779984047215414 17.65766371271757 3
13.057614669489704 8.657663712717572 9
8.657663712717572 7.880929387391293 3
obj:  1.088092938739129
erro
[(0, 1), (1, 2), (0, 0), (3, 0), (2, 1), (2, 2), (0, 3), (0, 2)]
cliques:  0 mip: 68
C:  34.99999636839495
x(0,0) = 3.06	 x(0,1) = 26.91	 x(0,2) = 17.78	 x(0,3) = 13.06	 
x(1,0) = 0.09	 x(1,1) = 11.44	 x(1,2) = 16.44	 x(1,3) = 1.09	 
x(2,0) = 27.66	 x(2,1) = 20.66	 x(2,2) = 17.66	 x(2,3) = 8.66	 
x(3,0) = 10.88	 x(3,1) = 0.88	 x(3,2) = 24.53	 x(3,3) = 7.88	 
y(0,1,0) = 0.00	 y(1,0,0) = 1.00	 
y(0,2,0) = 0.79	 y(2,0,0) = 0.21	 
y(0,3,0) = 0.89	 y(3,0,0) = 0.11	 
y(1,2,0) = 0.75	 y(2,1,0) = 0.25	 
y(1,3,0) = 0.80	 y(3,1,0) = 0.20	 
y(2,3,0) = 0.32	 y(3,2,0) = 0.68	 
y(0,1,1) = 0.00	 y(1,0,1) = 1.00	 
y(0,2,1) = 0.03	 y(2,0,1) = 0.97	 
y(0,3,1) = 0.00	 y(3,0,1) = 1.00	 
y(1,2,1) = 0.60	 y(2,1,1) = 0.40	 
y(1,3,1) = 0.15	 y(3,1,1) = 0.85	 
y(2,3,1) = 0.00	 y(3,2,1) = 1.00	 
y(0,1,2) = 0.25	 y(1,0,2) = 0.75	 
y(0,2,2) = 0.14	 y(2,0,2) = 0.86	 
y(0,3,2) = 1.00	 y(3,0,2) = 0.00	 
y(1,2,2) = 0.18	 y(2,1,2) = 0.82	 
y(1,3,2) = 1.00	 y(3,1,2) = 0.00	 
y(2,3,2) = 0.77	 y(3,2,2) = 0.23	 
y(0,1,3) = 0.00	 y(1,0,3) = 1.00	 
y(0,2,3) = 0.20	 y(2,0,3) = 0.80	 
y(0,3,3) = 0.00	 y(3,0,3) = 1.00	 
y(1,2,3) = 0.52	 y(2,1,3) = 0.48	 
y(1,3,3) = 0.73	 y(3,1,3) = 0.27	 
y(2,3,3) = 0.09	 y(3,2,3) = 0.91	 
26.911426142132992 20.657663712717575 7
17.779984047215414 16.440726436701503 8
17.779984047215414 17.65766371271757 3
13.057614669489704 8.657663712717572 9
8.657663712717572 7.880929387391293 3
obj:  1.088092938739129
erro
[(0, 1), (1, 2), (0, 0), (3, 0), (2, 1), (2, 2), (0, 3), (0, 2)]
cliques:  0 mip: 68
C:  34.99999636839495
x(0,0) = 3.06	 x(0,1) = 26.91	 x(0,2) = 17.78	 x(0,3) = 13.06	 
x(1,0) = 0.09	 x(1,1) = 11.44	 x(1,2) = 16.44	 x(1,3) = 1.09	 
x(2,0) = 27.66	 x(2,1) = 20.66	 x(2,2) = 17.66	 x(2,3) = 8.66	 
x(3,0) = 10.88	 x(3,1) = 0.88	 x(3,2) = 24.53	 x(3,3) = 7.88	 
y(0,1,0) = 0.00	 y(1,0,0) = 1.00	 
y(0,2,0) = 0.79	 y(2,0,0) = 0.21	 
y(0,3,0) = 0.89	 y(3,0,0) = 0.11	 
y(1,2,0) = 0.75	 y(2,1,0) = 0.25	 
y(1,3,0) = 0.80	 y(3,1,0) = 0.20	 
y(2,3,0) = 0.32	 y(3,2,0) = 0.68	 
y(0,1,1) = 0.00	 y(1,0,1) = 1.00	 
y(0,2,1) = 0.03	 y(2,0,1) = 0.97	 
y(0,3,1) = 0.00	 y(3,0,1) = 1.00	 
y(1,2,1) = 0.60	 y(2,1,1) = 0.40	 
y(1,3,1) = 0.15	 y(3,1,1) = 0.85	 
y(2,3,1) = 0.00	 y(3,2,1) = 1.00	 
y(0,1,2) = 0.25	 y(1,0,2) = 0.75	 
y(0,2,2) = 0.14	 y(2,0,2) = 0.86	 
y(0,3,2) = 1.00	 y(3,0,2) = 0.00	 
y(1,2,2) = 0.18	 y(2,1,2) = 0.82	 
y(1,3,2) = 1.00	 y(3,1,2) = 0.00	 
y(2,3,2) = 0.77	 y(3,2,2) = 0.23	 
y(0,1,3) = 0.00	 y(1,0,3) = 1.00	 
y(0,2,3) = 0.20	 y(2,0,3) = 0.80	 
y(0,3,3) = 0.00	 y(3,0,3) = 1.00	 
y(1,2,3) = 0.52	 y(2,1,3) = 0.48	 
y(1,3,3) = 0.73	 y(3,1,3) = 0.27	 
y(2,3,3) = 0.09	 y(3,2,3) = 0.91	 
26.911426142132992 20.657663712717575 7
17.779984047215414 16.440726436701503 8
17.779984047215414 17.65766371271757 3
13.057614669489704 8.657663712717572 9
8.657663712717572 7.880929387391293 3
obj:  1.088092938739129
erro
[(0, 1), (1, 2), (0, 0), (3, 0), (2, 1), (2, 2), (0, 3), (0, 2)]
cliques:  0 mip: 68
C:  34.99999636839495
x(0,0) = 3.06	 x(0,1) = 26.91	 x(0,2) = 17.78	 x(0,3) = 13.06	 
x(1,0) = 0.09	 x(1,1) = 11.44	 x(1,2) = 16.44	 x(1,3) = 1.09	 
x(2,0) = 27.66	 x(2,1) = 20.66	 x(2,2) = 17.66	 x(2,3) = 8.66	 
x(3,0) = 10.88	 x(3,1) = 0.88	 x(3,2) = 24.53	 x(3,3) = 7.88	 
y(0,1,0) = 0.00	 y(1,0,0) = 1.00	 
y(0,2,0) = 0.79	 y(2,0,0) = 0.21	 
y(0,3,0) = 0.89	 y(3,0,0) = 0.11	 
y(1,2,0) = 0.75	 y(2,1,0) = 0.25	 
y(1,3,0) = 0.80	 y(3,1,0) = 0.20	 
y(2,3,0) = 0.32	 y(3,2,0) = 0.68	 
y(0,1,1) = 0.00	 y(1,0,1) = 1.00	 
y(0,2,1) = 0.03	 y(2,0,1) = 0.97	 
y(0,3,1) = 0.00	 y(3,0,1) = 1.00	 
y(1,2,1) = 0.60	 y(2,1,1) = 0.40	 
y(1,3,1) = 0.15	 y(3,1,1) = 0.85	 
y(2,3,1) = 0.00	 y(3,2,1) = 1.00	 
y(0,1,2) = 0.25	 y(1,0,2) = 0.75	 
y(0,2,2) = 0.14	 y(2,0,2) = 0.86	 
y(0,3,2) = 1.00	 y(3,0,2) = 0.00	 
y(1,2,2) = 0.18	 y(2,1,2) = 0.82	 
y(1,3,2) = 1.00	 y(3,1,2) = 0.00	 
y(2,3,2) = 0.77	 y(3,2,2) = 0.23	 
y(0,1,3) = 0.00	 y(1,0,3) = 1.00	 
y(0,2,3) = 0.20	 y(2,0,3) = 0.80	 
y(0,3,3) = 0.00	 y(3,0,3) = 1.00	 
y(1,2,3) = 0.52	 y(2,1,3) = 0.48	 
y(1,3,3) = 0.73	 y(3,1,3) = 0.27	 
y(2,3,3) = 0.09	 y(3,2,3) = 0.91	 
26.911426142132992 20.657663712717575 7
17.779984047215414 16.440726436701503 8
17.779984047215414 17.65766371271757 3
13.057614669489704 8.657663712717572 9
8.657663712717572 7.880929387391293 3
obj:  1.088092938739129
erro
[(0, 1), (1, 2), (0, 0), (3, 0), (2, 1), (2, 2), (0, 3), (0, 2)]
cliques:  0 mip: 68
C:  34.99999636839495
x(0,0) = 3.06	 x(0,1) = 26.91	 x(0,2) = 17.78	 x(0,3) = 13.06	 
x(1,0) = 0.09	 x(1,1) = 11.44	 x(1,2) = 16.44	 x(1,3) = 1.09	 
x(2,0) = 27.66	 x(2,1) = 20.66	 x(2,2) = 17.66	 x(2,3) = 8.66	 
x(3,0) = 10.88	 x(3,1) = 0.88	 x(3,2) = 24.53	 x(3,3) = 7.88	 
y(0,1,0) = 0.00	 y(1,0,0) = 1.00	 
y(0,2,0) = 0.79	 y(2,0,0) = 0.21	 
y(0,3,0) = 0.89	 y(3,0,0) = 0.11	 
y(1,2,0) = 0.75	 y(2,1,0) = 0.25	 
y(1,3,0) = 0.80	 y(3,1,0) = 0.20	 
y(2,3,0) = 0.32	 y(3,2,0) = 0.68	 
y(0,1,1) = 0.00	 y(1,0,1) = 1.00	 
y(0,2,1) = 0.03	 y(2,0,1) = 0.97	 
y(0,3,1) = 0.00	 y(3,0,1) = 1.00	 
y(1,2,1) = 0.60	 y(2,1,1) = 0.40	 
y(1,3,1) = 0.15	 y(3,1,1) = 0.85	 
y(2,3,1) = 0.00	 y(3,2,1) = 1.00	 
y(0,1,2) = 0.25	 y(1,0,2) = 0.75	 
y(0,2,2) = 0.14	 y(2,0,2) = 0.86	 
y(0,3,2) = 1.00	 y(3,0,2) = 0.00	 
y(1,2,2) = 0.18	 y(2,1,2) = 0.82	 
y(1,3,2) = 1.00	 y(3,1,2) = 0.00	 
y(2,3,2) = 0.77	 y(3,2,2) = 0.23	 
y(0,1,3) = 0.00	 y(1,0,3) = 1.00	 
y(0,2,3) = 0.20	 y(2,0,3) = 0.80	 
y(0,3,3) = 0.00	 y(3,0,3) = 1.00	 
y(1,2,3) = 0.52	 y(2,1,3) = 0.48	 
y(1,3,3) = 0.73	 y(3,1,3) = 0.27	 
y(2,3,3) = 0.09	 y(3,2,3) = 0.91	 
26.911426142132992 20.657663712717575 7
17.779984047215414 16.440726436701503 8
17.779984047215414 17.65766371271757 3
13.057614669489704 8.657663712717572 9
8.657663712717572 7.880929387391293 3
obj:  1.088092938739129
erro
[(0, 1), (1, 2), (0, 0), (3, 0), (2, 1), (2, 2), (0, 3), (0, 2)]
cliques:  0 mip: 68
C:  34.99999636839495
x(0,0) = 3.06	 x(0,1) = 26.91	 x(0,2) = 17.78	 x(0,3) = 13.06	 
x(1,0) = 0.09	 x(1,1) = 11.44	 x(1,2) = 16.44	 x(1,3) = 1.09	 
x(2,0) = 27.66	 x(2,1) = 20.66	 x(2,2) = 17.66	 x(2,3) = 8.66	 
x(3,0) = 10.88	 x(3,1) = 0.88	 x(3,2) = 24.53	 x(3,3) = 7.88	 
y(0,1,0) = 0.00	 y(1,0,0) = 1.00	 
y(0,2,0) = 0.79	 y(2,0,0) = 0.21	 
y(0,3,0) = 0.89	 y(3,0,0) = 0.11	 
y(1,2,0) = 0.75	 y(2,1,0) = 0.25	 
y(1,3,0) = 0.80	 y(3,1,0) = 0.20	 
y(2,3,0) = 0.32	 y(3,2,0) = 0.68	 
y(0,1,1) = 0.00	 y(1,0,1) = 1.00	 
y(0,2,1) = 0.03	 y(2,0,1) = 0.97	 
y(0,3,1) = 0.00	 y(3,0,1) = 1.00	 
y(1,2,1) = 0.60	 y(2,1,1) = 0.40	 
y(1,3,1) = 0.15	 y(3,1,1) = 0.85	 
y(2,3,1) = 0.00	 y(3,2,1) = 1.00	 
y(0,1,2) = 0.25	 y(1,0,2) = 0.75	 
y(0,2,2) = 0.14	 y(2,0,2) = 0.86	 
y(0,3,2) = 1.00	 y(3,0,2) = 0.00	 
y(1,2,2) = 0.18	 y(2,1,2) = 0.82	 
y(1,3,2) = 1.00	 y(3,1,2) = 0.00	 
y(2,3,2) = 0.77	 y(3,2,2) = 0.23	 
y(0,1,3) = 0.00	 y(1,0,3) = 1.00	 
y(0,2,3) = 0.20	 y(2,0,3) = 0.80	 
y(0,3,3) = 0.00	 y(3,0,3) = 1.00	 
y(1,2,3) = 0.52	 y(2,1,3) = 0.48	 
y(1,3,3) = 0.73	 y(3,1,3) = 0.27	 
y(2,3,3) = 0.09	 y(3,2,3) = 0.91	 
26.911426142132992 20.657663712717575 7
17.779984047215414 16.440726436701503 8
17.779984047215414 17.65766371271757 3
13.057614669489704 8.657663712717572 9
8.657663712717572 7.880929387391293 3
obj:  1.088092938739129
erro
[(0, 1), (1, 2), (0, 0), (3, 0), (2, 1), (2, 2), (0, 3), (0, 2)]
cliques:  0 mip: 68
C:  34.99999636839495
x(0,0) = 3.06	 x(0,1) = 26.91	 x(0,2) = 17.78	 x(0,3) = 13.06	 
x(1,0) = 0.09	 x(1,1) = 11.44	 x(1,2) = 16.44	 x(1,3) = 1.09	 
x(2,0) = 27.66	 x(2,1) = 20.66	 x(2,2) = 17.66	 x(2,3) = 8.66	 
x(3,0) = 10.88	 x(3,1) = 0.88	 x(3,2) = 24.53	 x(3,3) = 7.88	 
y(0,1,0) = 0.00	 y(1,0,0) = 1.00	 
y(0,2,0) = 0.79	 y(2,0,0) = 0.21	 
y(0,3,0) = 0.89	 y(3,0,0) = 0.11	 
y(1,2,0) = 0.75	 y(2,1,0) = 0.25	 
y(1,3,0) = 0.80	 y(3,1,0) = 0.20	 
y(2,3,0) = 0.32	 y(3,2,0) = 0.68	 
y(0,1,1) = 0.00	 y(1,0,1) = 1.00	 
y(0,2,1) = 0.03	 y(2,0,1) = 0.97	 
y(0,3,1) = 0.00	 y(3,0,1) = 1.00	 
y(1,2,1) = 0.60	 y(2,1,1) = 0.40	 
y(1,3,1) = 0.15	 y(3,1,1) = 0.85	 
y(2,3,1) = 0.00	 y(3,2,1) = 1.00	 
y(0,1,2) = 0.25	 y(1,0,2) = 0.75	 
y(0,2,2) = 0.14	 y(2,0,2) = 0.86	 
y(0,3,2) = 1.00	 y(3,0,2) = 0.00	 
y(1,2,2) = 0.18	 y(2,1,2) = 0.82	 
y(1,3,2) = 1.00	 y(3,1,2) = 0.00	 
y(2,3,2) = 0.77	 y(3,2,2) = 0.23	 
y(0,1,3) = 0.00	 y(1,0,3) = 1.00	 
y(0,2,3) = 0.20	 y(2,0,3) = 0.80	 
y(0,3,3) = 0.00	 y(3,0,3) = 1.00	 
y(1,2,3) = 0.52	 y(2,1,3) = 0.48	 
y(1,3,3) = 0.73	 y(3,1,3) = 0.27	 
y(2,3,3) = 0.09	 y(3,2,3) = 0.91	 
26.911426142132992 20.657663712717575 7
17.779984047215414 16.440726436701503 8
17.779984047215414 17.65766371271757 3
13.057614669489704 8.657663712717572 9
8.657663712717572 7.880929387391293 3
obj:  1.088092938739129
erro
[(0, 1), (1, 2), (0, 0), (3, 0), (2, 1), (2, 2), (0, 3), (0, 2)]
cliques:  0 mip: 68
C:  34.99999636839495
x(0,0) = 3.06	 x(0,1) = 26.91	 x(0,2) = 17.78	 x(0,3) = 13.06	 
x(1,0) = 0.09	 x(1,1) = 11.44	 x(1,2) = 16.44	 x(1,3) = 1.09	 
x(2,0) = 27.66	 x(2,1) = 20.66	 x(2,2) = 17.66	 x(2,3) = 8.66	 
x(3,0) = 10.88	 x(3,1) = 0.88	 x(3,2) = 24.53	 x(3,3) = 7.88	 
y(0,1,0) = 0.00	 y(1,0,0) = 1.00	 
y(0,2,0) = 0.79	 y(2,0,0) = 0.21	 
y(0,3,0) = 0.89	 y(3,0,0) = 0.11	 
y(1,2,0) = 0.75	 y(2,1,0) = 0.25	 
y(1,3,0) = 0.80	 y(3,1,0) = 0.20	 
y(2,3,0) = 0.32	 y(3,2,0) = 0.68	 
y(0,1,1) = 0.00	 y(1,0,1) = 1.00	 
y(0,2,1) = 0.03	 y(2,0,1) = 0.97	 
y(0,3,1) = 0.00	 y(3,0,1) = 1.00	 
y(1,2,1) = 0.60	 y(2,1,1) = 0.40	 
y(1,3,1) = 0.15	 y(3,1,1) = 0.85	 
y(2,3,1) = 0.00	 y(3,2,1) = 1.00	 
y(0,1,2) = 0.25	 y(1,0,2) = 0.75	 
y(0,2,2) = 0.14	 y(2,0,2) = 0.86	 
y(0,3,2) = 1.00	 y(3,0,2) = 0.00	 
y(1,2,2) = 0.18	 y(2,1,2) = 0.82	 
y(1,3,2) = 1.00	 y(3,1,2) = 0.00	 
y(2,3,2) = 0.77	 y(3,2,2) = 0.23	 
y(0,1,3) = 0.00	 y(1,0,3) = 1.00	 
y(0,2,3) = 0.20	 y(2,0,3) = 0.80	 
y(0,3,3) = 0.00	 y(3,0,3) = 1.00	 
y(1,2,3) = 0.52	 y(2,1,3) = 0.48	 
y(1,3,3) = 0.73	 y(3,1,3) = 0.27	 
y(2,3,3) = 0.09	 y(3,2,3) = 0.91	 
26.911426142132992 20.657663712717575 7
17.779984047215414 16.440726436701503 8
17.779984047215414 17.65766371271757 3
13.057614669489704 8.657663712717572 9
8.657663712717572 7.880929387391293 3
obj:  1.088092938739129
erro
[(0, 1), (1, 2), (0, 0), (3, 0), (2, 1), (2, 2), (0, 3), (0, 2)]
cliques:  0 mip: 68
C:  34.99999636839495
x(0,0) = 3.06	 x(0,1) = 26.91	 x(0,2) = 17.78	 x(0,3) = 13.06	 
x(1,0) = 0.09	 x(1,1) = 11.44	 x(1,2) = 16.44	 x(1,3) = 1.09	 
x(2,0) = 27.66	 x(2,1) = 20.66	 x(2,2) = 17.66	 x(2,3) = 8.66	 
x(3,0) = 10.88	 x(3,1) = 0.88	 x(3,2) = 24.53	 x(3,3) = 7.88	 
y(0,1,0) = 0.00	 y(1,0,0) = 1.00	 
y(0,2,0) = 0.79	 y(2,0,0) = 0.21	 
y(0,3,0) = 0.89	 y(3,0,0) = 0.11	 
y(1,2,0) = 0.75	 y(2,1,0) = 0.25	 
y(1,3,0) = 0.80	 y(3,1,0) = 0.20	 
y(2,3,0) = 0.32	 y(3,2,0) = 0.68	 
y(0,1,1) = 0.00	 y(1,0,1) = 1.00	 
y(0,2,1) = 0.03	 y(2,0,1) = 0.97	 
y(0,3,1) = 0.00	 y(3,0,1) = 1.00	 
y(1,2,1) = 0.60	 y(2,1,1) = 0.40	 
y(1,3,1) = 0.15	 y(3,1,1) = 0.85	 
y(2,3,1) = 0.00	 y(3,2,1) = 1.00	 
y(0,1,2) = 0.25	 y(1,0,2) = 0.75	 
y(0,2,2) = 0.14	 y(2,0,2) = 0.86	 
y(0,3,2) = 1.00	 y(3,0,2) = 0.00	 
y(1,2,2) = 0.18	 y(2,1,2) = 0.82	 
y(1,3,2) = 1.00	 y(3,1,2) = 0.00	 
y(2,3,2) = 0.77	 y(3,2,2) = 0.23	 
y(0,1,3) = 0.00	 y(1,0,3) = 1.00	 
y(0,2,3) = 0.20	 y(2,0,3) = 0.80	 
y(0,3,3) = 0.00	 y(3,0,3) = 1.00	 
y(1,2,3) = 0.52	 y(2,1,3) = 0.48	 
y(1,3,3) = 0.73	 y(3,1,3) = 0.27	 
y(2,3,3) = 0.09	 y(3,2,3) = 0.91	 
26.911426142132992 20.657663712717575 7
17.779984047215414 16.440726436701503 8
17.779984047215414 17.65766371271757 3
13.057614669489704 8.657663712717572 9
8.657663712717572 7.880929387391293 3
obj:  1.088092938739129
erro
[(0, 1), (1, 2), (0, 0), (3, 0), (2, 1), (2, 2), (0, 3), (0, 2)]
cliques:  0 mip: 0
iterações: 16 cortes cliques encontrados: 6 mip: 1041 objective:  34.99999636839495
Coin0506I Presolve 157 (-171) rows, 90 (-71) columns and 490 (-260) elements
Clp1000I sum of infeasibilities 1.79124e-08 - average 1.14092e-10, 0 fixed columns
Coin0506I Presolve 157 (0) rows, 90 (0) columns and 490 (0) elements
Clp0029I End of values pass after 90 iterations
Clp0000I Optimal - objective value 29
Clp0000I Optimal - objective value 29
Coin0511I After Postsolve, objective 29, infeasibilities - dual 0 (0), primal 0 (0)
Clp0000I Optimal - objective value 29
Clp0000I Optimal - objective value 29
Clp0000I Optimal - objective value 29
Coin0511I After Postsolve, objective 29, infeasibilities - dual 0 (0), primal 0 (0)
Clp0032I Optimal objective 29 - 0 iterations time 0.012, Presolve 0.00, Idiot 0.01
Coin3009W Conflict graph built in 0.000 seconds, density: 0.095%
